nbCarTypes = 6;
nbOptions = 4;
nbSlots = 34;
demand = [8, 2, 2, 10, 2, 10];
option = [
           [ 1, 0, 1, 0],
           [ 0, 0, 1, 1],
           [ 0, 1, 0, 0],
           [ 1, 1, 0, 0],
           [ 0, 0, 1, 0],
           [ 0, 0, 0, 1]
        ]; 